NAME 
ROWS
 N  OBJ
 L  R0      
 E  R1      
 E  R2      
 E  R3      
 E  R4      
 E  R5      
 E  R6      
 E  R7      
 E  R8      
 E  R9      
 E  R10     
 E  R11     
 E  R12     
 E  R13     
 E  R14     
 E  R15     
COLUMNS
    MARKER    'MARKER'                 'INTORG'
    I0(6)     OBJ       75
    I0(6)     R0        -89
    I0(6)     R1        6
    I0(6)     R2        17
    I0(6)     R3        18
    I0(6)     R4        8
    I0(6)     R15       1
    I1(7)     OBJ       131
    I1(7)     R0        149
    I1(7)     R1        12
    I1(7)     R3        11
    I1(7)     R5        15
    I1(7)     R6        12
    I1(7)     R7        -1
    I1(7)     R15       1
    I2(5)     OBJ       -7
    I2(5)     R0        -54
    I2(5)     R2        4
    I2(5)     R6        14
    I2(5)     R7        -1
    I2(5)     R15       1
    I3(8)     OBJ       181
    I3(8)     R0        93
    I3(8)     R1        11
    I3(8)     R2        10
    I3(8)     R3        10
    I3(8)     R4        8
    I3(8)     R5        12
    I3(8)     R6        -1
    I3(8)     R15       1
    I4(6)     OBJ       166
    I4(6)     R0        -7
    I4(6)     R2        19
    I4(6)     R3        10
    I4(6)     R4        7
    I4(6)     R5        2
    I4(6)     R15       1
    I5(7)     OBJ       -31
    I5(7)     R0        -149
    I5(7)     R1        6
    I5(7)     R4        13
    I5(7)     R5        1
    I5(7)     R6        7
    I5(7)     R7        14
    I5(7)     R15       1
    I6(6)     OBJ       199
    I6(6)     R0        -149
    I6(6)     R2        18
    I6(6)     R3        11
    I6(6)     R4        3
    I6(6)     R6        15
    I6(6)     R15       1
    MARKER    'MARKER'                 'INTEND'
    C7(8)     OBJ       9
    C7(8)     R0        -6
    C7(8)     R3        5
    C7(8)     R6        11
    C7(8)     R8        1
    C7(8)     R9        13
    C7(8)     R10       3
    C7(8)     R11       -1
    C7(8)     R13       8
    C8(9)     OBJ       6
    C8(9)     R1        7
    C8(9)     R2        18
    C8(9)     R3        8
    C8(9)     R4        13
    C8(9)     R5        13
    C8(9)     R7        4
    C8(9)     R8        14
    C8(9)     R11       18
    C8(9)     R12       16
    C9(9)     R0        7
    C9(9)     R2        10
    C9(9)     R4        13
    C9(9)     R6        10
    C9(9)     R8        6
    C9(9)     R9        4
    C9(9)     R12       5
    C9(9)     R13       15
    C9(9)     R14       9
    C10(10)   OBJ       7
    C10(10)   R0        -10
    C10(10)   R3        7
    C10(10)   R4        4
    C10(10)   R5        18
    C10(10)   R6        -1
    C10(10)   R7        6
    C10(10)   R8        16
    C10(10)   R9        5
    C10(10)   R11       1
    C10(10)   R12       -1
    C11(12)   OBJ       -3
    C11(12)   R0        6
    C11(12)   R2        10
    C11(12)   R3        19
    C11(12)   R4        16
    C11(12)   R5        11
    C11(12)   R6        -1
    C11(12)   R7        -1
    C11(12)   R8        1
    C11(12)   R9        18
    C11(12)   R10       19
    C11(12)   R12       15
    C11(12)   R14       1
    C12(12)   OBJ       7
    C12(12)   R0        -8
    C12(12)   R1        4
    C12(12)   R2        2
    C12(12)   R3        18
    C12(12)   R4        6
    C12(12)   R5        10
    C12(12)   R6        1
    C12(12)   R7        -1
    C12(12)   R9        10
    C12(12)   R10       15
    C12(12)   R13       16
    C12(12)   R14       9
    C13(10)   OBJ       -3
    C13(10)   R0        -1
    C13(10)   R1        8
    C13(10)   R2        -1
    C13(10)   R4        18
    C13(10)   R5        17
    C13(10)   R6        10
    C13(10)   R8        10
    C13(10)   R10       15
    C13(10)   R12       14
    C13(10)   R14       6
    C14(11)   OBJ       4
    C14(11)   R0        2
    C14(11)   R3        19
    C14(11)   R4        17
    C14(11)   R6        3
    C14(11)   R7        12
    C14(11)   R8        16
    C14(11)   R9        10
    C14(11)   R10       14
    C14(11)   R11       2
    C14(11)   R12       19
    C14(11)   R14       2
    C15(1)    R1        1
    C16(1)    R2        1
    C17(1)    R3        1
    C18(1)    R4        1
    C19(1)    R5        1
    C20(1)    R6        1
    C21(1)    R7        1
    C22(1)    R8        1
    C23(1)    R9        1
    C24(1)    R10       1
    C25(1)    R11       1
    C26(1)    R12       1
    C27(1)    R13       1
    C28(1)    R14       1
    C29(1)    R15       1
RHS
    RHS1      R0        -2.8013450292397670e+02
    RHS1      R1        93
    RHS1      R2        95
    RHS1      R3        60
    RHS1      R4        96
    RHS1      R5        90
    RHS1      R6        50
    RHS1      R7        85
    RHS1      R8        56
    RHS1      R9        67
    RHS1      R10       79
    RHS1      R11       63
    RHS1      R12       99
    RHS1      R13       57
    RHS1      R14       67
    RHS1      R15       2
BOUNDS
 UP BND1      I0(6)     2
 UP BND1      I1(7)     2
 UP BND1      I2(5)     2
 UP BND1      I3(8)     2
 UP BND1      I4(6)     2
 UP BND1      I5(7)     2
 UP BND1      I6(6)     2
ENDATA
